NAME          PRIMAL
ROWS
 N  COST
 E  LIM1
 L  LIM2
 L  LIM3
COLUMNS
    XONE      COST                 3   LIM1                 1
    XONE      LIM2                 3
    XONE      LIM3                 0
    XTWO      COST                -2   LIM1                -2
    XTWO      LIM2                -6
    XTWO      LIM3                 3
    XTHREE    COST                -1   LIM1                 1
    XTHREE    LIM2                 0
    XTHREE    LIM3                 0
RHS
    RHS1      LIM1                 1   LIM2                 3   
    RHS1      LIM3                 2
ENDATA
